
  32    1
  10

   0   0   7 2 3 5 6 7 14 31 
   9   1   4 30 15 13 4 
   6   1   6 30 27 18 15 10 8 
   7   2   7 29 22 20 18 16 11 10 
   2   4   4 29 27 26 9 
   3   3   6 29 27 26 19 18 12 
   1   2   7 28 27 26 25 24 18 17 
   9   3   5 29 25 23 21 19 
   7   1   3 25 19 15 
   5   3   3 28 25 23 
   2   1   3 25 24 23 
   1   2   2 28 23 
   8   2   2 26 23 
   4   4   2 24 23 
   4   4   1 17 
   5   1   1 17 
   5   4   1 23 
   6   1   1 23 
  10   1   1 24 
   2   2   1 27 
   8   3   1 26 
   5   3   1 24 
   1   1   1 32
   5   2   1 32
   9   1   1 32
   7   1   1 32
   4   1   1 32
   8   2   1 32
   7   1   1 32
   6   1   1 32
   2   2   1 32
   0   0   0 
